; benchmark generated from python API
(set-info :status unknown)
(declare-fun x_month () Int)
(declare-fun x_day () Int)
(declare-fun x_year () Int)
(declare-fun y_month () Int)
(declare-fun y_day () Int)
(declare-fun y_year () Int)
(assert
 (>= x_month 1))
(assert
 (<= x_month 12))
(assert
 (>= x_day 1))
(assert
 (<= x_day 31))
(assert
 (let (($x215 (<= x_day 28)))
 (let (($x213 (<= x_day 29)))
 (let (($x210 (= (mod x_year 400) 0)))
 (let (($x166 (= (mod x_year 4) 0)))
 (let (($x249 (ite (or (and $x166 (and (distinct (mod x_year 100) 0) true)) $x210) $x213 $x215)))
 (let (($x205 (= x_month 2)))
 (ite $x205 $x249 true))))))))
(assert
 (let (($x224 (<= x_day 30)))
 (let (($x227 (or (= x_month 4) (= x_month 6) (= x_month 9) (= x_month 11))))
 (ite $x227 $x224 true))))
(assert
 (>= y_month 1))
(assert
 (<= y_month 12))
(assert
 (>= y_day 1))
(assert
 (<= y_day 31))
(assert
 (let (($x186 (<= y_day 28)))
 (let (($x251 (<= y_day 29)))
 (let (($x247 (= (mod y_year 400) 0)))
 (let (($x232 (= (mod y_year 4) 0)))
 (let (($x169 (ite (or (and $x232 (and (distinct (mod y_year 100) 0) true)) $x247) $x251 $x186)))
 (let (($x226 (= y_month 2)))
 (ite $x226 $x169 true))))))))
(assert
 (let (($x182 (<= y_day 30)))
 (let (($x181 (or (= y_month 4) (= y_month 6) (= y_month 9) (= y_month 11))))
 (ite $x181 $x182 true))))
(assert
 (let (($x189 (= x_day 31)))
 (let (($x188 (= x_month 1)))
 (let (($x187 (= x_year 2020)))
 (and $x187 $x188 $x189)))))
(assert
 (let (($x252 (= y_day 31)))
 (let (($x193 (= y_month 1)))
 (let (($x192 (= y_year 2019)))
 (and $x192 $x193 $x252)))))
(assert
 (let ((?x318 (mod 0 146097)))
 (let (($x161 (or (= (+ (mod (- (+ x_month 1) 1) 12) 1) 4) (= (+ (mod (- (+ x_month 1) 1) 12) 1) 6) (= (+ (mod (- (+ x_month 1) 1) 12) 1) 9) (= (+ (mod (- (+ x_month 1) 1) 12) 1) 11))))
 (let ((?x261 (+ (+ x_year 0) (div (- (+ x_month 1) 1) 12))))
 (let (($x266 (or (and (= (mod ?x261 4) 0) (and (distinct (mod ?x261 100) 0) true)) (= (mod ?x261 400) 0))))
 (let ((?x269 (ite (= (+ (mod (- (+ x_month 1) 1) 12) 1) 2) (ite $x266 29 28) (ite $x161 30 31))))
 (let ((?x280 (ite (< x_day 1) 1 (ite (> x_day ?x269) ?x269 x_day))))
 (let ((?x284 (ite (< ?x280 1) 1 (ite (> ?x280 ?x269) ?x269 ?x280))))
 (let (($x302 (and (= (mod (+ ?x261 (* (div 0 146097) 400)) 4) 0) (and (distinct (mod (+ ?x261 (* (div 0 146097) 400)) 100) 0) true))))
 (let (($x287 (or $x302 (= (mod (+ ?x261 (* (div 0 146097) 400)) 400) 0))))
 (let ((?x299 (ite (= 1 (+ (mod (- (+ x_month 1) 1) 12) 1)) (ite $x287 0 0) 0)))
 (let ((?x305 (ite (= 2 (+ (mod (- (+ x_month 1) 1) 12) 1)) (ite $x287 31 31) ?x299)))
 (let ((?x311 (ite (= 3 (+ (mod (- (+ x_month 1) 1) 12) 1)) (ite $x287 60 59) ?x305)))
 (let ((?x317 (ite (= 4 (+ (mod (- (+ x_month 1) 1) 12) 1)) (ite $x287 91 90) ?x311)))
 (let ((?x159 (ite (= 5 (+ (mod (- (+ x_month 1) 1) 12) 1)) (ite $x287 121 120) ?x317)))
 (let ((?x349 (ite (= 6 (+ (mod (- (+ x_month 1) 1) 12) 1)) (ite $x287 152 151) ?x159)))
 (let ((?x347 (ite (= 7 (+ (mod (- (+ x_month 1) 1) 12) 1)) (ite $x287 182 181) ?x349)))
 (let ((?x340 (ite (= 8 (+ (mod (- (+ x_month 1) 1) 12) 1)) (ite $x287 213 212) ?x347)))
 (let ((?x338 (ite (= 9 (+ (mod (- (+ x_month 1) 1) 12) 1)) (ite $x287 244 243) ?x340)))
 (let ((?x331 (ite (= 10 (+ (mod (- (+ x_month 1) 1) 12) 1)) (ite $x287 274 273) ?x338)))
 (let ((?x329 (ite (= 11 (+ (mod (- (+ x_month 1) 1) 12) 1)) (ite $x287 305 304) ?x331)))
 (let ((?x322 (ite (= 12 (+ (mod (- (+ x_month 1) 1) 12) 1)) (ite $x287 335 334) ?x329)))
 (let ((?x312 (+ (* 365 (- (+ ?x261 (* (div 0 146097) 400)) 1)) (div (- (+ ?x261 (* (div 0 146097) 400)) 1) 4))))
 (let ((?x308 (+ (- ?x312 (div (- (+ ?x261 (* (div 0 146097) 400)) 1) 100)) (div (- (+ ?x261 (* (div 0 146097) 400)) 1) 400))))
 (let ((?x321 (+ (+ (+ ?x308 ?x322) (- ?x284 1)) ?x318)))
 (let ((?x333 (mod ?x321 146097)))
 (let ((?x336 (div ?x333 36524)))
 (let ((?x342 (ite (<= 4 ?x336) 3 ?x336)))
 (let ((?x348 (- ?x333 (* ?x342 36524))))
 (let ((?x354 (mod ?x348 1461)))
 (let ((?x357 (div ?x354 365)))
 (let ((?x359 (ite (<= 4 ?x357) 3 ?x357)))
 (let ((?x152 (+ (+ (* (div ?x321 146097) 400) (* ?x342 100)) (* (div ?x348 1461) 4))))
 (let ((?x125 (+ (+ ?x152 ?x359) 1)))
 (let (($x135 (or (and (= (mod ?x125 4) 0) (and (distinct (mod ?x125 100) 0) true)) (= (mod ?x125 400) 0))))
 (let ((?x146 (- ?x354 (* ?x359 365))))
 (let ((?x137 (ite $x135 31 31)))
 (let (($x368 (>= ?x146 ?x137)))
 (let ((?x415 (ite $x368 (+ (- ?x146 ?x137) 1) (+ (- ?x146 (ite $x135 0 0)) 1))))
 (let ((?x122 (ite $x135 60 59)))
 (let (($x371 (>= ?x146 ?x122)))
 (let ((?x121 (ite $x135 91 90)))
 (let (($x375 (>= ?x146 ?x121)))
 (let ((?x412 (ite $x375 (+ (- ?x146 ?x121) 1) (ite $x371 (+ (- ?x146 ?x122) 1) ?x415))))
 (let ((?x120 (ite $x135 121 120)))
 (let (($x377 (>= ?x146 ?x120)))
 (let ((?x102 (ite $x135 152 151)))
 (let (($x379 (>= ?x146 ?x102)))
 (let ((?x404 (ite $x379 (+ (- ?x146 ?x102) 1) (ite $x377 (+ (- ?x146 ?x120) 1) ?x412))))
 (let ((?x360 (ite $x135 182 181)))
 (let (($x381 (>= ?x146 ?x360)))
 (let ((?x363 (ite $x135 213 212)))
 (let (($x383 (>= ?x146 ?x363)))
 (let ((?x362 (ite $x383 (+ (- ?x146 ?x363) 1) (ite $x381 (+ (- ?x146 ?x360) 1) ?x404))))
 (let ((?x364 (ite $x135 244 243)))
 (let (($x385 (>= ?x146 ?x364)))
 (let ((?x366 (ite $x135 274 273)))
 (let (($x387 (>= ?x146 ?x366)))
 (let ((?x392 (ite $x387 (+ (- ?x146 ?x366) 1) (ite $x385 (+ (- ?x146 ?x364) 1) ?x362))))
 (let ((?x367 (ite $x135 305 304)))
 (let (($x389 (>= ?x146 ?x367)))
 (let ((?x374 (ite $x135 335 334)))
 (let (($x391 (>= ?x146 ?x374)))
 (let ((?x154 (ite $x391 (+ (- ?x146 ?x374) 1) (ite $x389 (+ (- ?x146 ?x367) 1) ?x392))))
 (let (($x285 (= 0 0)))
 (let ((?x378 (ite $x377 5 (ite $x375 4 (ite $x371 3 (ite $x368 2 1))))))
 (let ((?x386 (ite $x385 9 (ite $x383 8 (ite $x381 7 (ite $x379 6 ?x378))))))
 (let ((?x272 (+ (mod (- (+ x_month 1) 1) 12) 1)))
 (let (($x254 (= (ite $x285 ?x272 (ite $x391 12 (ite $x389 11 (ite $x387 10 ?x386)))) 2)))
 (and (= (ite $x285 ?x261 ?x125) 2020) $x254 (= (ite $x285 ?x284 ?x154) 29)))))))))))))))))))))))))))))))))))))))))))))))))))))))))))))))))))))))
(assert
 (let ((?x318 (mod 0 146097)))
(let (($x482 (or (= (+ (mod (- (+ y_month 1) 1) 12) 1) 4) (= (+ (mod (- (+ y_month 1) 1) 12) 1) 6) (= (+ (mod (- (+ y_month 1) 1) 12) 1) 9) (= (+ (mod (- (+ y_month 1) 1) 12) 1) 11))))
(let ((?x466 (+ (+ y_year 0) (div (- (+ y_month 1) 1) 12))))
(let (($x476 (or (and (= (mod ?x466 4) 0) (and (distinct (mod ?x466 100) 0) true)) (= (mod ?x466 400) 0))))
(let ((?x484 (ite (= (+ (mod (- (+ y_month 1) 1) 12) 1) 2) (ite $x476 29 28) (ite $x482 30 31))))
(let ((?x488 (ite (< y_day 1) 1 (ite (> y_day ?x484) ?x484 y_day))))
(let ((?x492 (ite (< ?x488 1) 1 (ite (> ?x488 ?x484) ?x484 ?x488))))
(let (($x507 (and (= (mod (+ ?x466 (* (div 0 146097) 400)) 4) 0) (and (distinct (mod (+ ?x466 (* (div 0 146097) 400)) 100) 0) true))))
(let (($x510 (or $x507 (= (mod (+ ?x466 (* (div 0 146097) 400)) 400) 0))))
(let ((?x512 (ite (= 1 (+ (mod (- (+ y_month 1) 1) 12) 1)) (ite $x510 0 0) 0)))
(let ((?x515 (ite (= 2 (+ (mod (- (+ y_month 1) 1) 12) 1)) (ite $x510 31 31) ?x512)))
(let ((?x518 (ite (= 3 (+ (mod (- (+ y_month 1) 1) 12) 1)) (ite $x510 60 59) ?x515)))
(let ((?x521 (ite (= 4 (+ (mod (- (+ y_month 1) 1) 12) 1)) (ite $x510 91 90) ?x518)))
(let ((?x524 (ite (= 5 (+ (mod (- (+ y_month 1) 1) 12) 1)) (ite $x510 121 120) ?x521)))
(let ((?x527 (ite (= 6 (+ (mod (- (+ y_month 1) 1) 12) 1)) (ite $x510 152 151) ?x524)))
(let ((?x530 (ite (= 7 (+ (mod (- (+ y_month 1) 1) 12) 1)) (ite $x510 182 181) ?x527)))
(let ((?x533 (ite (= 8 (+ (mod (- (+ y_month 1) 1) 12) 1)) (ite $x510 213 212) ?x530)))
(let ((?x536 (ite (= 9 (+ (mod (- (+ y_month 1) 1) 12) 1)) (ite $x510 244 243) ?x533)))
(let ((?x539 (ite (= 10 (+ (mod (- (+ y_month 1) 1) 12) 1)) (ite $x510 274 273) ?x536)))
(let ((?x542 (ite (= 11 (+ (mod (- (+ y_month 1) 1) 12) 1)) (ite $x510 305 304) ?x539)))
(let ((?x545 (ite (= 12 (+ (mod (- (+ y_month 1) 1) 12) 1)) (ite $x510 335 334) ?x542)))
(let ((?x497 (+ (* 365 (- (+ ?x466 (* (div 0 146097) 400)) 1)) (div (- (+ ?x466 (* (div 0 146097) 400)) 1) 4))))
(let ((?x501 (+ (- ?x497 (div (- (+ ?x466 (* (div 0 146097) 400)) 1) 100)) (div (- (+ ?x466 (* (div 0 146097) 400)) 1) 400))))
(let ((?x549 (+ (+ (+ ?x501 ?x545) (- ?x492 1)) ?x318)))
(let ((?x551 (mod ?x549 146097)))
(let ((?x552 (div ?x551 36524)))
(let ((?x554 (ite (<= 4 ?x552) 3 ?x552)))
(let ((?x556 (- ?x551 (* ?x554 36524))))
(let ((?x558 (mod ?x556 1461)))
(let ((?x559 (div ?x558 365)))
(let ((?x561 (ite (<= 4 ?x559) 3 ?x559)))
(let ((?x568 (+ (+ (* (div ?x549 146097) 400) (* ?x554 100)) (* (div ?x556 1461) 4))))
(let ((?x570 (+ (+ ?x568 ?x561) 1)))
(let (($x578 (or (and (= (mod ?x570 4) 0) (and (distinct (mod ?x570 100) 0) true)) (= (mod ?x570 400) 0))))
(let ((?x563 (- ?x558 (* ?x561 365))))
(let ((?x580 (ite $x578 31 31)))
(let (($x591 (>= ?x563 ?x580)))
(let ((?x617 (ite $x591 (+ (- ?x563 ?x580) 1) (+ (- ?x563 (ite $x578 0 0)) 1))))
(let ((?x581 (ite $x578 60 59)))
(let (($x593 (>= ?x563 ?x581)))
(let ((?x582 (ite $x578 91 90)))
(let (($x595 (>= ?x563 ?x582)))
(let ((?x623 (ite $x595 (+ (- ?x563 ?x582) 1) (ite $x593 (+ (- ?x563 ?x581) 1) ?x617))))
(let ((?x583 (ite $x578 121 120)))
(let (($x597 (>= ?x563 ?x583)))
(let ((?x584 (ite $x578 152 151)))
(let (($x599 (>= ?x563 ?x584)))
(let ((?x629 (ite $x599 (+ (- ?x563 ?x584) 1) (ite $x597 (+ (- ?x563 ?x583) 1) ?x623))))
(let ((?x585 (ite $x578 182 181)))
(let (($x601 (>= ?x563 ?x585)))
(let ((?x586 (ite $x578 213 212)))
(let (($x603 (>= ?x563 ?x586)))
(let ((?x635 (ite $x603 (+ (- ?x563 ?x586) 1) (ite $x601 (+ (- ?x563 ?x585) 1) ?x629))))
(let ((?x587 (ite $x578 244 243)))
(let (($x605 (>= ?x563 ?x587)))
(let ((?x588 (ite $x578 274 273)))
(let (($x607 (>= ?x563 ?x588)))
(let ((?x641 (ite $x607 (+ (- ?x563 ?x588) 1) (ite $x605 (+ (- ?x563 ?x587) 1) ?x635))))
(let ((?x589 (ite $x578 305 304)))
(let (($x609 (>= ?x563 ?x589)))
(let ((?x590 (ite $x578 335 334)))
(let (($x611 (>= ?x563 ?x590)))
(let ((?x647 (ite $x611 (+ (- ?x563 ?x590) 1) (ite $x609 (+ (- ?x563 ?x589) 1) ?x641))))
(let (($x285 (= 0 0)))
(let ((?x598 (ite $x597 5 (ite $x595 4 (ite $x593 3 (ite $x591 2 1))))))
(let ((?x606 (ite $x605 9 (ite $x603 8 (ite $x601 7 (ite $x599 6 ?x598))))))
(let ((?x467 (+ (mod (- (+ y_month 1) 1) 12) 1)))
(let (($x459 (= (ite $x285 ?x467 (ite $x611 12 (ite $x609 11 (ite $x607 10 ?x606)))) 2)))
(and (= (ite $x285 ?x466 ?x570) 2019) $x459 (= (ite $x285 ?x492 ?x647) 28)))))))))))))))))))))))))))))))))))))))))))))))))))))))))))))))))))))))
(check-sat)
